problems/csplib-prob015/SchursLemma-models/noch/O2/lingeling/model_1_1-5-18-solution000001.solution
language Essence 1.3

letting boxes be partition({1, 2, 4, 11, 14, 17}, {3, 10, 16, 18}, {5, 6, 8, 9, 12}, {7, 15}, {13})
